id: 1060
name: ex10
group: miplib2010
method: 1

Gurobi 7.0.2 (linux64, Matlab) logging started Thu Apr 19 16:15:08 2018


Gurobi 7.0.2 (linux64) logging started Thu Apr 19 16:15:08 2018

Optimize a model with 69608 rows, 17680 columns and 1162000 nonzeros
Coefficient statistics:
  Matrix range     [1e+00, 1e+00]
  Objective range  [1e+00, 1e+00]
  Bounds range     [1e+00, 1e+00]
  RHS range        [1e+00, 1e+00]
Presolve removed 6680 rows and 1788 columns
Presolve time: 0.32s
Presolved: 62928 rows, 15892 columns, 1031980 nonzeros

Iteration    Objective       Primal Inf.    Dual Inf.      Time
       0    3.3000000e+01   2.760000e+02   0.000000e+00      0s
    3419    1.0000007e+02   3.233735e+05   0.000000e+00      5s
    5159    1.0000010e+02   3.780774e+05   0.000000e+00     10s
    6754    1.0000015e+02   4.980871e+05   0.000000e+00     15s
    8059    1.0000017e+02   1.294071e+05   0.000000e+00     20s
Warning: Markowitz tolerance tightened to 0.03125
    9509    1.0000020e+02   5.503682e+05   0.000000e+00     26s
   10814    1.0000022e+02   2.653767e+05   0.000000e+00     31s
   11974    1.0000023e+02   8.835016e+04   0.000000e+00     35s
   13279    1.0000024e+02   1.082138e+05   0.000000e+00     40s
Warning: Markowitz tolerance tightened to 0.125
   14584    1.0000025e+02   2.152677e+04   0.000000e+00     45s
   15889    1.0000027e+02   1.157271e+05   0.000000e+00     50s
   17194    1.0000028e+02   1.292927e+05   0.000000e+00     55s
   18499    1.0000029e+02   6.833581e+05   0.000000e+00     60s
   19804    1.0000030e+02   7.240074e+04   0.000000e+00     66s
   20964    1.0000030e+02   9.004836e+04   0.000000e+00     70s
   22124    1.0000031e+02   1.879357e+04   0.000000e+00     75s
   23429    1.0000031e+02   1.874778e+04   0.000000e+00     80s
   24734    1.0000032e+02   9.292189e+04   0.000000e+00     86s
   25894    1.0000033e+02   1.359498e+04   0.000000e+00     90s
   27054    1.0000033e+02   8.783599e+03   0.000000e+00     95s
   28214    1.0000033e+02   6.703079e+05   0.000000e+00    100s
   29519    1.0000034e+02   8.749584e+03   0.000000e+00    105s
   30679    1.0000034e+02   2.307485e+04   0.000000e+00    110s
   31984    1.0000035e+02   1.248311e+04   0.000000e+00    115s
   33144    1.0000035e+02   1.396442e+04   0.000000e+00    120s
   34449    1.0000035e+02   3.861802e+04   0.000000e+00    125s
   35754    1.0000035e+02   3.304777e+03   0.000000e+00    130s
   37059    1.0000035e+02   9.962106e+02   0.000000e+00    136s
   38364    1.0000035e+02   7.104562e+01   0.000000e+00    140s
   38707    1.0000000e+02   0.000000e+00   0.000000e+00    142s

Solved in 38707 iterations and 141.77 seconds
Optimal objective  1.000000000e+02
status: OPTIMAL
